(set-info :Origin "This instance was generated by: BanditFuzz-- an RL fuzzer for SMT solvers" )
(set-info :Author "Joe Scott, Fed Mora, Vijay Ganesh" )
(set-info :Contact "Joe Scott, joseph.scott@uwaterloo.ca")
(set-logic QF_BV)
(declare-const bool_0 Bool)
(declare-const bool_1 Bool)
(declare-const bool_2 Bool)
(declare-const bool_3 Bool)
(declare-const bool_4 Bool)
(declare-const bv_0 (_ BitVec 32))
(declare-const bv_1 (_ BitVec 32))
(declare-const bv_2 (_ BitVec 32))
(declare-const bv_3 (_ BitVec 32))
(declare-const bv_4 (_ BitVec 32))
(assert (not (bvult (bvmul bv_0 #x1652fd9d ) (bvxnor #x203db920  #xdc56919a ))))
(assert (bvule (bvnand (bvxnor bv_3 bv_4) (bvurem #x0fd09cfc  #x6b3bff28 )) (bvxnor (bvor #xc99df223  #xbc936587 ) (bvsmod bv_1 #xac471217 ))))
(assert (bvuge (bvashr (bvurem #x2b18c6c2  #xae18f540 ) (bvsub bv_1 #x21ec49f0 )) (bvudiv (bvxnor #x5d6ffd1d  #x147586f7 ) (bvnand bv_1 bv_2))))
(assert (bvsgt (bvnor (bvand bv_2 #x31c7d0af ) (bvashr #x52dd5644  bv_1)) (bvadd (bvand bv_1 bv_3) (bvsub #x4ee8043b  bv_0))))
(assert (bvsgt (bvmul (bvor bv_0 bv_4) (bvshl bv_1 bv_4)) (bvxnor (bvmul #xf23ca430  bv_2) (bvashr #x9981c25e  #xfda8987b ))))
(check-sat)
(exit)
